p cnf 768
-14 -238
-15 -241
-16 -244
-17 -247
-18 -250
-19 -253
-20 -256
-21 -259
-22 -262
-23 -265
-24 -268
-25 -271
-26 -274
-27 275
-28 276
-29 277
-30 278
-31 -15
-31 -16
15 16 31
-32 -17
-32 -18
17 18 32
-33 -19
-33 -20
19 20 33
-34 -21
-34 -22
21 22 34
-35 -23
-35 -24
23 24 35
-36 -25
-36 -26
25 26 36
-37 -27
-37 -28
27 28 37
-38 -29
-38 -30
29 30 38
-39 31
-39 32
-31 -32 39
-40 33
-40 34
-33 -34 40
-41 35
-41 36
-35 -36 41
-42 37
-42 38
-37 -38 42
-43 39
-43 40
-39 -40 43
-44 41
-44 42
-41 -42 44
-45 43
-45 44
-43 -44 45
-46 -14
-46 15
14 -15 46
-47 14
-47 -15
-14 15 47
-48 -46
-48 -47
46 47 48
-49 14
-49 15
-14 -15 49
-50 -14
-50 -48
14 48 50
-51 14
-51 48
-14 -48 51
-52 -50
-52 -51
50 51 52
-53 14
-53 -48
-14 48 53
-54 -49
-54 -53
49 53 54
-55 -15
-55 16
15 -16 55
-56 15
-56 -16
-15 16 56
-57 -55
-57 -56
55 56 57
-58 15
-58 16
-15 -16 58
-59 54
-59 -57
-54 57 59
-60 -54
-60 57
54 -57 60
-61 -59
-61 -60
59 60 61
-62 -54
-62 -57
54 57 62
-63 -58
-63 -62
58 62 63
-64 -16
-64 17
16 -17 64
-65 16
-65 -17
-16 17 65
-66 -64
-66 -65
64 65 66
-67 16
-67 17
-16 -17 67
-68 63
-68 -66
-63 66 68
-69 -63
-69 66
63 -66 69
-70 -68
-70 -69
68 69 70
-71 -63
-71 -66
63 66 71
-72 -67
-72 -71
67 71 72
-73 -17
-73 18
17 -18 73
-74 17
-74 -18
-17 18 74
-75 -73
-75 -74
73 74 75
-76 17
-76 18
-17 -18 76
-77 72
-77 -75
-72 75 77
-78 -72
-78 75
72 -75 78
-79 -77
-79 -78
77 78 79
-80 -72
-80 -75
72 75 80
-81 -76
-81 -80
76 80 81
-82 -18
-82 19
18 -19 82
-83 18
-83 -19
-18 19 83
-84 -82
-84 -83
82 83 84
-85 18
-85 19
-18 -19 85
-86 81
-86 -84
-81 84 86
-87 -81
-87 84
81 -84 87
-88 -86
-88 -87
86 87 88
-89 -81
-89 -84
81 84 89
-90 -85
-90 -89
85 89 90
-91 -19
-91 20
19 -20 91
-92 19
-92 -20
-19 20 92
-93 -91
-93 -92
91 92 93
-94 19
-94 20
-19 -20 94
-95 90
-95 -93
-90 93 95
-96 -90
-96 93
90 -93 96
-97 -95
-97 -96
95 96 97
-98 -90
-98 -93
90 93 98
-99 -94
-99 -98
94 98 99
-100 -20
-100 21
20 -21 100
-101 20
-101 -21
-20 21 101
-102 -100
-102 -101
100 101 102
-103 20
-103 21
-20 -21 103
-104 99
-104 -102
-99 102 104
-105 -99
-105 102
99 -102 105
-106 -104
-106 -105
104 105 106
-107 -99
-107 -102
99 102 107
-108 -103
-108 -107
103 107 108
-109 -21
-109 22
21 -22 109
-110 21
-110 -22
-21 22 110
-111 -109
-111 -110
109 110 111
-112 21
-112 22
-21 -22 112
-113 108
-113 -111
-108 111 113
-114 -108
-114 111
108 -111 114
-115 -113
-115 -114
113 114 115
-116 -108
-116 -111
108 111 116
-117 -112
-117 -116
112 116 117
-118 -22
-118 23
22 -23 118
-119 22
-119 -23
-22 23 119
-120 -118
-120 -119
118 119 120
-121 22
-121 23
-22 -23 121
-122 117
-122 -120
-117 120 122
-123 -117
-123 120
117 -120 123
-124 -122
-124 -123
122 123 124
-125 -117
-125 -120
117 120 125
-126 -121
-126 -125
121 125 126
-127 -23
-127 24
23 -24 127
-128 23
-128 -24
-23 24 128
-129 -127
-129 -128
127 128 129
-130 23
-130 24
-23 -24 130
-131 126
-131 -129
-126 129 131
-132 -126
-132 129
126 -129 132
-133 -131
-133 -132
131 132 133
-134 -126
-134 -129
126 129 134
-135 -130
-135 -134
130 134 135
-136 -24
-136 25
24 -25 136
-137 24
-137 -25
-24 25 137
-138 -136
-138 -137
136 137 138
-139 24
-139 25
-24 -25 139
-140 135
-140 -138
-135 138 140
-141 -135
-141 138
135 -138 141
-142 -140
-142 -141
140 141 142
-143 -135
-143 -138
135 138 143
-144 -139
-144 -143
139 143 144
-145 -25
-145 26
25 -26 145
-146 25
-146 -26
-25 26 146
-147 -145
-147 -146
145 146 147
-148 25
-148 26
-25 -26 148
-149 144
-149 -147
-144 147 149
-150 -144
-150 147
144 -147 150
-151 -149
-151 -150
149 150 151
-152 -144
-152 -147
144 147 152
-153 -148
-153 -152
148 152 153
-154 -26
-154 27
26 -27 154
-155 26
-155 -27
-26 27 155
-156 -154
-156 -155
154 155 156
-157 26
-157 27
-26 -27 157
-158 153
-158 -156
-153 156 158
-159 -153
-159 156
153 -156 159
-160 -158
-160 -159
158 159 160
-161 -153
-161 -156
153 156 161
-162 -157
-162 -161
157 161 162
-163 -27
-163 28
27 -28 163
-164 27
-164 -28
-27 28 164
-165 -163
-165 -164
163 164 165
-166 27
-166 28
-27 -28 166
-167 162
-167 -165
-162 165 167
-168 -162
-168 165
162 -165 168
-169 -167
-169 -168
167 168 169
-170 -162
-170 -165
162 165 170
-171 -166
-171 -170
166 170 171
-172 -28
-172 29
28 -29 172
-173 28
-173 -29
-28 29 173
-174 -172
-174 -173
172 173 174
-175 28
-175 29
-28 -29 175
-176 171
-176 -174
-171 174 176
-177 -171
-177 174
171 -174 177
-178 -176
-178 -177
176 177 178
-179 -171
-179 -174
171 174 179
-180 -175
-180 -179
175 179 180
-181 -29
-181 30
29 -30 181
-182 29
-182 -30
-29 30 182
-183 -181
-183 -182
181 182 183
-184 29
-184 30
-29 -30 184
-185 180
-185 -183
-180 183 185
-186 -180
-186 183
180 -183 186
-187 -185
-187 -186
185 186 187
-188 -180
-188 -183
180 183 188
-189 -184
-189 -188
184 188 189
-190 14
-190 -52
-14 52 190
-191 -14
-191 16
14 -16 191
-192 -190
-192 -191
190 191 192
-193 14
-193 -61
-14 61 193
-194 -14
-194 17
14 -17 194
-195 -193
-195 -194
193 194 195
-196 14
-196 -70
-14 70 196
-197 -14
-197 18
14 -18 197
-198 -196
-198 -197
196 197 198
-199 14
-199 -79
-14 79 199
-200 -14
-200 19
14 -19 200
-201 -199
-201 -200
199 200 201
-202 14
-202 -88
-14 88 202
-203 -14
-203 20
14 -20 203
-204 -202
-204 -203
202 203 204
-205 14
-205 -97
-14 97 205
-206 -14
-206 21
14 -21 206
-207 -205
-207 -206
205 206 207
-208 14
-208 -106
-14 106 208
-209 -14
-209 22
14 -22 209
-210 -208
-210 -209
208 209 210
-211 14
-211 -115
-14 115 211
-212 -14
-212 23
14 -23 212
-213 -211
-213 -212
211 212 213
-214 14
-214 -124
-14 124 214
-215 -14
-215 24
14 -24 215
-216 -214
-216 -215
214 215 216
-217 14
-217 -133
-14 133 217
-218 -14
-218 25
14 -25 218
-219 -217
-219 -218
217 218 219
-220 14
-220 -142
-14 142 220
-221 -14
-221 26
14 -26 221
-222 -220
-222 -221
220 221 222
-223 14
-223 -151
-14 151 223
-224 -14
-224 27
14 -27 224
-225 -223
-225 -224
223 224 225
-226 14
-226 -160
-14 160 226
-227 -14
-227 28
14 -28 227
-228 -226
-228 -227
226 227 228
-229 14
-229 -169
-14 169 229
-230 -14
-230 29
14 -29 230
-231 -229
-231 -230
229 230 231
-232 14
-232 -178
-14 178 232
-233 -14
-233 30
14 -30 233
-234 -232
-234 -233
232 233 234
-235 14
-235 -187
-14 187 235
-236 1
-236 45
-1 -45 236
-237 -45
-237 46
45 -46 237
-238 -236
-238 -237
236 237 238
-239 2
-239 45
-2 -45 239
-240 -45
-240 -192
45 192 240
-241 -239
-241 -240
239 240 241
-242 3
-242 45
-3 -45 242
-243 -45
-243 -195
45 195 243
-244 -242
-244 -243
242 243 244
-245 4
-245 45
-4 -45 245
-246 -45
-246 -198
45 198 246
-247 -245
-247 -246
245 246 247
-248 5
-248 45
-5 -45 248
-249 -45
-249 -201
45 201 249
-250 -248
-250 -249
248 249 250
-251 6
-251 45
-6 -45 251
-252 -45
-252 -204
45 204 252
-253 -251
-253 -252
251 252 253
-254 7
-254 45
-7 -45 254
-255 -45
-255 -207
45 207 255
-256 -254
-256 -255
254 255 256
-257 8
-257 45
-8 -45 257
-258 -45
-258 -210
45 210 258
-259 -257
-259 -258
257 258 259
-260 9
-260 45
-9 -45 260
-261 -45
-261 -213
45 213 261
-262 -260
-262 -261
260 261 262
-263 10
-263 45
-10 -45 263
-264 -45
-264 -216
45 216 264
-265 -263
-265 -264
263 264 265
-266 11
-266 45
-11 -45 266
-267 -45
-267 -219
45 219 267
-268 -266
-268 -267
266 267 268
-269 12
-269 45
-12 -45 269
-270 -45
-270 -222
45 222 270
-271 -269
-271 -270
269 270 271
-272 13
-272 45
-13 -45 272
-273 -45
-273 -225
45 225 273
-274 -272
-274 -273
272 273 274
-275 -45
-275 -228
45 228 275
-276 -45
-276 -231
45 231 276
-277 -45
-277 -234
45 234 277
-278 -45
-278 235
45 -235 278
-279 -30
-279 189
30 -189 279
-280 14
-280 -279
-14 279 280
280
